Traveling Salesman Problem/TSP_generados/Aleatorio1621103838_18.tsp
NAME: Aleatorio1621103838_18.tsp
COMMENT: Randomly generated scenario
TYPE: TSP
DIMENSION: 18
EDGE_WEIGHT_TYPE: ATT
NODE_COORD_SECTION
1 39.38 36.87
2 25.19 28.84
3 7.03 7.95
4 10.16 32.82
5 3.94 6.75
6 1.19 31.16
7 15.13 6.43
8 28.94 39.55
9 9.34 31.29
10 16.42 10.34
11 18.91 30.35
12 27.38 14.26
13 33.72 7.23
14 29.12 38.17
15 37.98 22.6
16 34.52 8.0
17 13.68 33.02
18 45.84 15.2
