Traveling Salesman Problem/TSP_generados/Aleatorio1621103838_18.opt.tour
NAME: Aleatorio1621103838_18.opt.tour
COMMENT: Optimal solution for Aleatorio1621103838_18 (149.0422559908368)
TYPE: TOUR
DIMENSION: 18
TOUR_SECTION
1 8 14 2 11 17 4 9 6 5 3 7 10 12 13 16 18 15
-1
EOF
